HUN,8,6,644
5,12,2,95,4,87,0,46,3,56,1,97
5,70,0,18,4,75,2,98,1,28,3,21
4,49,2,90,0,98,5,82,3,19,1,63
3,1,2,14,5,34,4,9,0,61,1,99
2,26,0,11,4,100,3,14,5,81,1,26
5,6,3,12,2,17,1,76,4,95,0,17
1,82,2,1,3,60,0,45,5,100,4,96
4,64,0,9,2,22,5,6,3,41,1,88
